4571095.0
943
2 3 5 11 13 15 16 18 20 24 25 28 29 30 33 34 35 36 39 43 44 47 48 51 52 53 58 59 61 62 63 64 77 80 81 86 87 89 90 92 93 95 96 99 100 101 105 106 108 110 113 114 115 116 118 119 120 121 122 123 133 134 141 145 147 148 150 151 152 153 154 155 164 165 166 167 170 172 173 177 178 179 180 183 184 188 191 192 196 199 